nohup: ignoring input
miplib2017_binary-small
symmetric
./result/miplib2017/miplib2017_purebinary_solved.txt
original problem has 2025 variables (1800 bin, 0 int, 0 impl, 225 cont) and 230 constraints
10teams


miplib2017_binary-0
Number of variables 2025
Number of binary variables 1800
* Model status: sollimit
* Solving time: 4.635721
* number of sol :  1
* Model status: optimal
* Solving time: 9.957786
* number of sol :  1
original problem has 200 variables (200 bin, 0 int, 0 impl, 0 cont) and 17013 constraints
2club200v15p5scn


miplib2017_binary-0
Number of variables 200
Number of binary variables 200
* Model status: sollimit
* Solving time: 0.095662
* number of sol :  1
* Model status: nodelimit
* Solving time: 21.749163
* number of sol :  2
wrote problem to file /home/liudefen/projects/ML4LocalBranch_extend/data/generated_instances/miplib2017_binary/-small/transformedmodel/miplib2017_binary-0_transformed.cip
original problem has 200 variables (200 bin, 0 int, 0 impl, 0 cont) and 17013 constraints
-27.0
-27.0
original problem has 10772 variables (10771 bin, 0 int, 0 impl, 1 cont) and 12050 constraints
30_70_45_05_100


miplib2017_binary-1
Number of variables 10772
Number of binary variables 10771
* Model status: sollimit
* Solving time: 0.075583
* number of sol :  1
* Model status: nodelimit
* Solving time: 132.716014
* number of sol :  4
wrote problem to file /home/liudefen/projects/ML4LocalBranch_extend/data/generated_instances/miplib2017_binary/-small/transformedmodel/miplib2017_binary-1_transformed.cip
original problem has 10772 variables (10771 bin, 0 int, 0 impl, 1 cont) and 12050 constraints
12.0
12.0
original problem has 10976 variables (10975 bin, 0 int, 0 impl, 1 cont) and 12526 constraints
30_70_45_095_100


miplib2017_binary-2
Number of variables 10976
Number of binary variables 10975
* Model status: sollimit
* Solving time: 0.11071099999999999
* number of sol :  1
* Model status: optimal
* Solving time: 124.683225
* number of sol :  3
original problem has 10990 variables (10989 bin, 0 int, 0 impl, 1 cont) and 12471 constraints
30_70_45_095_98


miplib2017_binary-2
Number of variables 10990
Number of binary variables 10989
* Model status: sollimit
* Solving time: 0.09422599999999999
* number of sol :  1
* Model status: optimal
* Solving time: 99.957244
* number of sol :  4
original problem has 12675 variables (12675 bin, 0 int, 0 impl, 0 cont) and 11893 constraints
ab51-40-100


miplib2017_binary-2
Number of variables 12675
Number of binary variables 12675
* Model status: sollimit
* Solving time: 2.216622
* number of sol :  1
* Model status: nodelimit
* Solving time: 11.148271
* number of sol :  7
wrote problem to file /home/liudefen/projects/ML4LocalBranch_extend/data/generated_instances/miplib2017_binary/-small/transformedmodel/miplib2017_binary-2_transformed.cip
original problem has 12675 variables (12675 bin, 0 int, 0 impl, 0 cont) and 11893 constraints
-8931557659.0
-8931557659.0
original problem has 12812 variables (12812 bin, 0 int, 0 impl, 0 cont) and 12092 constraints
ab67-40-100


miplib2017_binary-3
Number of variables 12812
Number of binary variables 12812
* Model status: sollimit
* Solving time: 2.292686
* number of sol :  1
* Model status: nodelimit
* Solving time: 11.716851
* number of sol :  2
wrote problem to file /home/liudefen/projects/ML4LocalBranch_extend/data/generated_instances/miplib2017_binary/-small/transformedmodel/miplib2017_binary-3_transformed.cip
original problem has 12812 variables (12812 bin, 0 int, 0 impl, 0 cont) and 12092 constraints
-2135573378.0
-2135573378.0
original problem has 12622 variables (12622 bin, 0 int, 0 impl, 0 cont) and 11911 constraints
ab69-40-100


miplib2017_binary-4
Number of variables 12622
Number of binary variables 12622
* Model status: sollimit
* Solving time: 2.307028
* number of sol :  1
* Model status: nodelimit
* Solving time: 5.119687
* number of sol :  1
wrote problem to file /home/liudefen/projects/ML4LocalBranch_extend/data/generated_instances/miplib2017_binary/-small/transformedmodel/miplib2017_binary-4_transformed.cip
original problem has 12622 variables (12622 bin, 0 int, 0 impl, 0 cont) and 11911 constraints
0.0
0.0
original problem has 6689 variables (6689 bin, 0 int, 0 impl, 0 cont) and 6380 constraints
ab71-20-100


miplib2017_binary-5
Number of variables 6689
Number of binary variables 6689
* Model status: sollimit
* Solving time: 1.286738
* number of sol :  1
* Model status: nodelimit
* Solving time: 3.168883
* number of sol :  1
wrote problem to file /home/liudefen/projects/ML4LocalBranch_extend/data/generated_instances/miplib2017_binary/-small/transformedmodel/miplib2017_binary-5_transformed.cip
original problem has 6689 variables (6689 bin, 0 int, 0 impl, 0 cont) and 6380 constraints
0.0
0.0
original problem has 12370 variables (12370 bin, 0 int, 0 impl, 0 cont) and 11671 constraints
ab72-40-100


miplib2017_binary-6
Number of variables 12370
Number of binary variables 12370
* Model status: sollimit
* Solving time: 2.273393
* number of sol :  1
* Model status: nodelimit
* Solving time: 6.265824
* number of sol :  1
wrote problem to file /home/liudefen/projects/ML4LocalBranch_extend/data/generated_instances/miplib2017_binary/-small/transformedmodel/miplib2017_binary-6_transformed.cip
original problem has 12370 variables (12370 bin, 0 int, 0 impl, 0 cont) and 11671 constraints
0.0
0.0
original problem has 168974 variables (168974 bin, 0 int, 0 impl, 0 cont) and 167661 constraints
academictimetablebig


miplib2017_binary-7
Number of variables 168974
Number of binary variables 168974
